output_file = "9-1-C-100-2.00-137.csv";

n_days = 100;
n_shelf_types = 2;
n_crops = 1;

num_shelves = [
    6, 3
];


crop_shelf_type_compatible = [
    [1, 1]
];

crop_growth_days = [15];

n_configurations = 2;

crop_growth_day_config = [
    [1, 1, 1, 2, 2, 2, 2, 2, 2, 2, 2, 2, 2, 2, 2]
];

capacity = [
    [12, 12],
[12, 12]
];

demand = [
    [0, 0, 0, 0, 0, 0, 0, 0, 0, 0, 0, 0, 0, 0, 0, 0, 0, 0, 0, 0, 0, 0, 0, 12, 0, 0, 0, 0, 0, 0, 8, 0, 0, 0, 0, 0, 0, 0, 0, 0, 0, 4, 0, 0, 0, 0, 0, 0, 0, 0, 0, 0, 0, 14, 16, 0, 10, 0, 10, 0, 0, 0, 0, 0, 0, 0, 12, 0, 0, 6, 0, 8, 0, 0, 0, 0, 0, 6, 0, 16, 0, 30, 0, 0, 0, 0, 0, 0, 0, 16, 0, 6, 10, 0, 0, 0, 18, 8, 0, 0]
];
